c CNF file corresponding to a (partial) station packing problem.
p cnf 1172 213
1 2 3 4 5 6 7 8 9 10 11 12 13 14 0
-1 -2 0
-1 -3 0
-1 -4 0
-1 -5 0
-1 -6 0
-1 -7 0
-1 -8 0
-1 -9 0
-1 -10 0
-1 -11 0
-1 -12 0
-1 -13 0
-1 -14 0
-2 -3 0
-2 -4 0
-2 -5 0
-2 -6 0
-2 -7 0
-2 -8 0
-2 -9 0
-2 -10 0
-2 -11 0
-2 -12 0
-2 -13 0
-2 -14 0
-3 -4 0
-3 -5 0
-3 -6 0
-3 -7 0
-3 -8 0
-3 -9 0
-3 -10 0
-3 -11 0
-3 -12 0
-3 -13 0
-3 -14 0
-4 -5 0
-4 -6 0
-4 -7 0
-4 -8 0
-4 -9 0
-4 -10 0
-4 -11 0
-4 -12 0
-4 -13 0
-4 -14 0
-5 -6 0
-5 -7 0
-5 -8 0
-5 -9 0
-5 -10 0
-5 -11 0
-5 -12 0
-5 -13 0
-5 -14 0
-6 -7 0
-6 -8 0
-6 -9 0
-6 -10 0
-6 -11 0
-6 -12 0
-6 -13 0
-6 -14 0
-7 -8 0
-7 -9 0
-7 -10 0
-7 -11 0
-7 -12 0
-7 -13 0
-7 -14 0
-8 -9 0
-8 -10 0
-8 -11 0
-8 -12 0
-8 -13 0
-8 -14 0
-9 -10 0
-9 -11 0
-9 -12 0
-9 -13 0
-9 -14 0
-10 -11 0
-10 -12 0
-10 -13 0
-10 -14 0
-11 -12 0
-11 -13 0
-11 -14 0
-12 -13 0
-12 -14 0
-13 -14 0
1157 1158 1159 1160 1161 1162 1163 1164 1165 1166 1167 1168 1169 1170 1171 1172 0
-1157 -1158 0
-1157 -1159 0
-1157 -1160 0
-1157 -1161 0
-1157 -1162 0
-1157 -1163 0
-1157 -1164 0
-1157 -1165 0
-1157 -1166 0
-1157 -1167 0
-1157 -1168 0
-1157 -1169 0
-1157 -1170 0
-1157 -1171 0
-1157 -1172 0
-1158 -1159 0
-1158 -1160 0
-1158 -1161 0
-1158 -1162 0
-1158 -1163 0
-1158 -1164 0
-1158 -1165 0
-1158 -1166 0
-1158 -1167 0
-1158 -1168 0
-1158 -1169 0
-1158 -1170 0
-1158 -1171 0
-1158 -1172 0
-1159 -1160 0
-1159 -1161 0
-1159 -1162 0
-1159 -1163 0
-1159 -1164 0
-1159 -1165 0
-1159 -1166 0
-1159 -1167 0
-1159 -1168 0
-1159 -1169 0
-1159 -1170 0
-1159 -1171 0
-1159 -1172 0
-1160 -1161 0
-1160 -1162 0
-1160 -1163 0
-1160 -1164 0
-1160 -1165 0
-1160 -1166 0
-1160 -1167 0
-1160 -1168 0
-1160 -1169 0
-1160 -1170 0
-1160 -1171 0
-1160 -1172 0
-1161 -1162 0
-1161 -1163 0
-1161 -1164 0
-1161 -1165 0
-1161 -1166 0
-1161 -1167 0
-1161 -1168 0
-1161 -1169 0
-1161 -1170 0
-1161 -1171 0
-1161 -1172 0
-1162 -1163 0
-1162 -1164 0
-1162 -1165 0
-1162 -1166 0
-1162 -1167 0
-1162 -1168 0
-1162 -1169 0
-1162 -1170 0
-1162 -1171 0
-1162 -1172 0
-1163 -1164 0
-1163 -1165 0
-1163 -1166 0
-1163 -1167 0
-1163 -1168 0
-1163 -1169 0
-1163 -1170 0
-1163 -1171 0
-1163 -1172 0
-1164 -1165 0
-1164 -1166 0
-1164 -1167 0
-1164 -1168 0
-1164 -1169 0
-1164 -1170 0
-1164 -1171 0
-1164 -1172 0
-1165 -1166 0
-1165 -1167 0
-1165 -1168 0
-1165 -1169 0
-1165 -1170 0
-1165 -1171 0
-1165 -1172 0
-1166 -1167 0
-1166 -1168 0
-1166 -1169 0
-1166 -1170 0
-1166 -1171 0
-1166 -1172 0
-1167 -1168 0
-1167 -1169 0
-1167 -1170 0
-1167 -1171 0
-1167 -1172 0
-1168 -1169 0
-1168 -1170 0
-1168 -1171 0
-1168 -1172 0
-1169 -1170 0
-1169 -1171 0
-1169 -1172 0
-1170 -1171 0
-1170 -1172 0
-1171 -1172 0
